c File: data_files/evolved_graphs/g7975.col
c
c Auto generated graph
c
p edge 100 91
e 1 61
e 1 62
e 1 80
e 2 45
e 2 80
e 3 55
e 4 53
e 5 59
e 5 91
e 6 79
e 6 83
e 7 50
e 7 99
e 8 46
e 8 60
e 9 60
e 9 89
e 10 40
e 10 82
e 11 23
e 11 44
e 12 73
e 12 83
e 13 39
e 13 41
e 14 43
e 14 84
e 15 34
e 16 25
e 16 42
e 17 74
e 17 76
e 17 98
e 18 39
e 18 50
e 18 65
e 19 61
e 19 87
e 19 89
e 20 100
e 21 67
e 22 52
e 22 69
e 23 61
e 23 76
e 24 26
e 24 46
e 24 65
e 25 29
e 26 28
e 27 64
e 27 68
e 28 63
e 30 44
e 30 54
e 31 85
e 32 36
e 33 37
e 33 40
e 35 66
e 37 48
e 37 63
e 38 40
e 38 63
e 39 68
e 43 52
e 43 95
e 45 75
e 47 54
e 47 56
e 48 82
e 48 97
e 49 51
e 49 77
e 51 99
e 56 98
e 57 58
e 59 69
e 62 97
e 70 78
e 71 86
e 72 93
e 73 98
e 74 96
e 77 81
e 79 84
e 79 95
e 87 89
e 88 94
e 90 92
e 91 96
